 N  C  N  C  N  C Fe  C  N  C  O  C  N  C  N  C  N  C  N  C Mo  C  H 
 1.0000000000000000
    20.0000000000000000    0.0000000000000000    0.0000000000000000
     0.0000000000000000   20.0000000000000000    0.0000000000000000
     0.0000000000000000    0.0000000000000000   20.0000000000000000
   1   6   1   5   1   3   1   5   1  14   1  10   1   5   1   5   1   8   1   3   1  15  82
Cartesian
 11.0097243164992591 11.1647683861588458 11.3552518905582254
 12.3331220482359285 11.4528553451726207 11.1373372165082607
 13.1214116198069970 11.1098560931421968 12.2846681316677664
 12.2545590545056253 10.6941842269897727 13.2553544998235679
 10.9221296949876123 10.6915221454307048 12.6519037947109929
 12.8513791914886024 12.1429021144605898 10.0561812317099601
 12.1146323157873059 12.7982283466265887  9.0923653261336899
 10.7586329412203359 12.6838346212616244  8.9465197755888042
 10.4114536049769999 13.6396199853510858  8.0229714928939977
 11.5723991540053586 14.3858162046706823  7.5954348595928494
 12.6451684879469877 13.8230852894692084  8.2267202786217091
  9.1311618048219394 13.8581305283083722  7.5566710935703920
  8.0072033820883401 13.1620901619039952  7.9528513273421053
  7.9868359561670168 12.1876662750225382  8.9197769059160716
  6.6719710947105302 11.8202684913299922  9.0407668315864527
  5.8499931882571223 12.5290917776343882  8.0872437852470522
  6.6800581387973947 13.3917069955217141  7.4292539678744420
  9.5489093523034505 11.3874838167613639  9.9679005495274637
  6.3291641586065452 14.4129136760078929  6.3922805914537344
  6.6121692826410525 13.9812669249334558  4.9459558276575697
  4.3825643565465349 12.3355923766677993  7.9020010238613674
  6.1889606671953743 10.9838751050064634 10.0255641969194507
  6.9082211202569885 10.4756697808264629 11.0953631582886949
  8.2448669493344529 10.6663489651480923 11.3328425520706553
  8.4967091903434095 10.1486496855094117 12.5913923538920614
  7.2765150132374039  9.5390998481409408 13.1140435842856355
  6.3049974653967320  9.7441506538748364 12.1736936435225598
  7.0579613745365464  8.7701387429628408 14.3797795309326073
  9.7341833210932052 10.2340686956100946 13.2448058088674969
  9.8381036498285912  9.7111398834351021 14.6414401725836516
 10.3352179723515274  8.4160386247953536 14.8193773968055869
 10.5714289008116893  7.8332981025483237 16.0577957757952845
 10.2278382751566070  8.6012172249551799 17.1742576492819872
  9.6980609311971833  9.8797167859550221 17.0394671580519734
  9.5120707661086801 10.4375028999768276 15.7766714419927165
 11.1684278656036344  6.4273013246149340 16.1739665784044462
 11.5586093080061847  5.8893205841573701 14.7932892032164567
 11.2260296048236459  6.5735044766496928 13.6295441743647991
 10.5829441461333200  7.7735408726915285 13.6435884588578986
 12.2007436826277722  4.6591577999266800 14.6199096545948102
 12.4814598051683152  4.1582383923561572 13.3554431614474822
 12.1252761388359112  4.8769063728908311 12.2167908356340806
 11.4875538127299457  6.1034537210363240 12.3365456986439597
  4.8643634826552056  9.3464760433501333 12.2261559312292754
  3.9682697118893735 10.4124984428930354 12.8706202268214920
 10.1060799012071119  5.4841538152514921 16.7878379877036430
 12.4142594987220676  6.4678073213431020 17.0874653086774480
 11.0339537076383802  6.9438632220496528 11.1855239321150588
  9.6600406749366385  6.9143856059609332 10.8753326777653960
  9.0551551389545324  7.7359837905174604  9.9313852692514359
  7.7289122684318494  7.3599431027877307  9.8903307574779173
  7.4628344334694647  6.3455242866240438 10.8601364437910384
  8.6563357831063588  6.0403466639394274 11.4632166000641185
  6.7753961483716187  7.7829343784141622  8.9773517644259311
  6.9661666947606360  8.5990625409431658  7.8836256183925135
  8.1411178651520117  9.2525044788116340  7.5907901225603656
  7.9325671239942617  9.8658271707375462  6.3743270694346794
  6.5910451033721218  9.6197193849756051  5.9123402397153200
  5.9892769206117968  8.8281414443589306  6.8567121337193555
  8.9019287617673051 10.5454202951264122  5.6588767674367473
 10.2523214892308321 10.6081191104181141  5.9615982015515891
 10.8321211400742641 10.0634955661399221  7.0864064453496329
 12.1914863167605567 10.1988564489012603  6.9120771101035841
 12.4722892044140092 10.8949578784619892  5.6865233672269087
 11.2621203534343142 11.1511676243797861  5.0914564355324501
 13.1429497728827425  9.6966977787933821  7.7784750432272673
 12.9320257440657844  8.9423022926432836  8.9242365847879910
 13.9944007282501435  8.4633199805591151  9.7549058897155341
 13.4220935623353999  7.7519361208083986 10.7797930605507837
 11.9907598447580224  7.7300478726694335 10.5237336538317372
 11.7138604102818800  8.5395126056332895  9.4258386293920449
 14.2007457057930981  7.2146376541969524 11.9409820614516828
 15.4516161555199059  8.6706766986179833  9.4925629486009395
 16.0464397680915170  7.5889847880824126  8.5766635195586733
  9.8380554550668418  9.4858023894820622  8.8872311743553052
 10.9984096141431351 11.7724126037273873  3.7572680959634681
 10.8912955819611739 10.7424169645740584  2.6225717422977004
 13.8373052090837820 11.2390979261027013  5.1915292694413395
  4.6103711553413422  8.2561470198430431  6.8442534107918753
  6.0351131644834171 10.0533466599947676  4.5945623751387483
  6.2710715454993915  9.0236701353185254  3.4796335462217942
  8.7746028494564872  4.9805964835689496 12.5148819917236604
  6.1240426879518575  5.7233787506189033 11.1112217252613465
  5.8329392645655469  4.4786933218183247 10.2586527310815843
 14.0856986077848969 14.2008417023211635  8.1327692612028084
 11.5582477790121310 15.5781517943074572  6.6894098004467306
 11.7222258505501653 15.2474526860008197  5.1999700874360020
 14.6092200456241130 11.2447349992297045 12.3879683789399344
 15.0861653163298239 12.6094984731707669 12.9031899462863908
 12.7190175120138438 10.3468298638625900 14.6373579292573144
  5.1308633782503517 10.7708510201222598 10.0053243911512748
 13.9197950016216403 12.2976371889971805 10.0436630785131040
  6.0379619744689821  5.4569463026782952 12.1663293741921024
  5.3389192960013165  6.4608916584912111 10.9360347202830255
  9.1221635299754347 11.4416123974702355 15.6701316538274593
 16.0041355329908370  8.6763175330308133 10.4336617888156926
 15.6205965176614701  9.6533061284435320  9.0447983766964306
  4.7569480486506635  8.4088966175814690 12.7757906451158494
  4.5029695540726600  9.1362006134876808 11.2161212309523428
 12.3528713679484667 16.2659501592214788  6.9880892913090600
 10.6265366451737968 16.1311591695083258  6.8278240827104790
 12.3357697081545563  4.4835547181885769 11.2306971316481512
 14.4084066541194691 11.7902387332357925  5.9421536824571488
 13.7939729354445131 11.8571849928781035  4.2969795757859011
 14.4175692666749313 10.3463241951556846  4.9441481504373561
 15.0638154979469139 11.0536159915749277 11.4136352606886167
 14.9933857122892285 10.4620137099111847 13.0456625253538743
  5.7872384401641126  7.3659579425445312  9.0960651496355709
 12.9714064952806698  3.1994998173253015 13.2568516626846211
 10.3717849825140913  8.1996137149655759 18.1680582262846215
 12.4727650244634809  4.0699928882405096 15.4851989030051627
  4.8374269988884420  4.0869428323017107 10.4760871924636927
  6.5560746111132113  3.6867501272446046 10.4540674097010129
  5.8800036644490774  4.7100175020455044  9.1939564158244487
  8.9979825249367931 14.6388103203093642  6.8240448177832027
  9.4365465468951175 10.4445629224108405 17.9242304822850862
  7.1416000764976237  9.3868515021570911 15.2745819481713649
  7.7709679462155883  7.9533022055416138 14.4901996753306612
  6.0615844347959698  8.3325320957716347 14.3819043661169648
 14.1722417383526516  9.8931588276134672  7.5195683591021796
  8.5928131769123031 10.9999375640734289  4.7302834516166490
  4.0642336749686567  8.4941533477690427  7.7616849226503790
  4.6246684230211317  7.1658874662809788  6.7616163755059429
  4.0258528790867443  8.6361922164216089  6.0084064140652220
 11.7922186670308982 12.4818082012297946  3.5187532939030111
 10.0783679028345645 12.3609070872986173  3.7948861382556482
 14.4435640548805235  6.1553182850269010 11.8457327439415572
 13.6726556920271172  7.3352977234483161 12.8831957466020768
 15.1437294643027798  7.7524214192241310 12.0290038495075038
  9.8012977807153625  5.8345538325616060 17.7738608259524149
 10.4969413548024040  4.4721440219425599 16.8912313902378379
  9.2194829401008214  5.4426845876416943 16.1542643059631956
  2.9233740924703233 10.0984175849668887 12.8706071782653986
  4.0410472202790286 11.3582021405380740 12.3332087256271556
  4.2687988693234198 10.5976409500646298 13.9023495081817767
  3.8193582230125416 12.5522479704946655  8.8134793745080238
  4.1502140529879901 11.3054130824073180  7.6188244153721421
  3.9944517491779692 12.9824275712891488  7.1163932395484588
 12.0894409045332196 10.7617948571117239 15.4187448012679376
 13.7239754573940438 10.7328972648578205 14.7938951001160479
 12.7661900252524294  9.2684943909457260 14.8013054268381961
  8.9440242860564343  5.4054793781658450 13.5050400064370599
  9.5836474242170748  4.2796965679261199 12.3272135170548207
  7.8526145756317600  4.4064697486147812 12.5689525546980434
 12.1598184515611702  6.8301478036728183 18.0823637916302609
 13.1775230166372399  7.1258695017270890 16.6710198291996612
 12.8479732831627107  5.4751800007352731 17.2023898286197259
  4.9622916824578907 10.2420639737185670  4.6910184701706905
  6.4795132219728995 11.0024347884214801  4.2969352945964170
  5.2719921618671446 14.6701715712855432  6.4784547070464624
  6.8735440385939821 15.3393000427573938  6.5958938699887959
 16.1753984961138890 12.6405986499557397 12.9616219861136486
 14.6882379971504236 12.8165627859808904 13.8963387732524044
 14.7575511279945619 13.4138182359056550 12.2447329095260553
 17.1037158159320306  7.7782182001149307  8.3836708165389222
 15.5242784452679103  7.5579583033653925  7.6199075527767608
 15.9550085308379863  6.6036113315355811  9.0346748978086104
 10.6810136693031588 11.2330984914371879  1.6703671785720622
 10.0955207025155929 10.0238408833270292  2.8184336937573002
 11.8216968291133551 10.1833435017189711  2.5186342538579209
 14.4709709062844656 14.5903281447392388  9.0793511144594810
 14.2498272079929222 14.9629561632448436  7.3722626486256377
 14.7075815252212916 13.3401321213427995  7.8704535578289345
  6.4135192482032224 14.7985151892208844  4.2505007857565333
  5.9814775318403051 13.1397899982194328  4.6629628692885197
  7.6518001935405939 13.6748814304498385  4.8205311503950394
 11.7600504091496258 16.1605834683326073  4.6031242282037574
 10.8918567895439988 14.6405972312637367  4.8400891321724835
 12.6426383611790989 14.6877797648850521  5.0235837478669039
  5.8650908935908328  9.3785429790971584  2.5313741496229092
  5.7972913531150096  8.0714613349059956  3.7195333554174206
  7.3373840052977632  8.8377624093258547  3.3462303560993973
